c 3-Coloring of graph with 15 vertices, 42 edges
c Variable x[v][c] = vertex v has color c  (v=0..14, c=0..2)
c Variable number: v*3 + c + 1
c SAT Competition 2026 — Experimental Track — LLM-Guided SAT Solver
c Difficulty: easy
p cnf 45 186
1 2 3 0
4 5 6 0
7 8 9 0
10 11 12 0
13 14 15 0
16 17 18 0
19 20 21 0
22 23 24 0
25 26 27 0
28 29 30 0
31 32 33 0
34 35 36 0
37 38 39 0
40 41 42 0
43 44 45 0
-1 -2 0
-1 -3 0
-2 -3 0
-4 -5 0
-4 -6 0
-5 -6 0
-7 -8 0
-7 -9 0
-8 -9 0
-10 -11 0
-10 -12 0
-11 -12 0
-13 -14 0
-13 -15 0
-14 -15 0
-16 -17 0
-16 -18 0
-17 -18 0
-19 -20 0
-19 -21 0
-20 -21 0
-22 -23 0
-22 -24 0
-23 -24 0
-25 -26 0
-25 -27 0
-26 -27 0
-28 -29 0
-28 -30 0
-29 -30 0
-31 -32 0
-31 -33 0
-32 -33 0
-34 -35 0
-34 -36 0
-35 -36 0
-37 -38 0
-37 -39 0
-38 -39 0
-40 -41 0
-40 -42 0
-41 -42 0
-43 -44 0
-43 -45 0
-44 -45 0
-1 -4 0
-2 -5 0
-3 -6 0
-1 -13 0
-2 -14 0
-3 -15 0
-1 -16 0
-2 -17 0
-3 -18 0
-1 -28 0
-2 -29 0
-3 -30 0
-1 -31 0
-2 -32 0
-3 -33 0
-1 -40 0
-2 -41 0
-3 -42 0
-4 -10 0
-5 -11 0
-6 -12 0
-4 -16 0
-5 -17 0
-6 -18 0
-4 -19 0
-5 -20 0
-6 -21 0
-4 -22 0
-5 -23 0
-6 -24 0
-4 -25 0
-5 -26 0
-6 -27 0
-4 -43 0
-5 -44 0
-6 -45 0
-7 -10 0
-8 -11 0
-9 -12 0
-7 -16 0
-8 -17 0
-9 -18 0
-7 -22 0
-8 -23 0
-9 -24 0
-7 -28 0
-8 -29 0
-9 -30 0
-7 -31 0
-8 -32 0
-9 -33 0
-7 -37 0
-8 -38 0
-9 -39 0
-7 -40 0
-8 -41 0
-9 -42 0
-10 -13 0
-11 -14 0
-12 -15 0
-10 -16 0
-11 -17 0
-12 -18 0
-10 -25 0
-11 -26 0
-12 -27 0
-13 -19 0
-14 -20 0
-15 -21 0
-13 -31 0
-14 -32 0
-15 -33 0
-13 -40 0
-14 -41 0
-15 -42 0
-16 -25 0
-17 -26 0
-18 -27 0
-16 -37 0
-17 -38 0
-18 -39 0
-19 -25 0
-20 -26 0
-21 -27 0
-19 -28 0
-20 -29 0
-21 -30 0
-19 -31 0
-20 -32 0
-21 -33 0
-19 -40 0
-20 -41 0
-21 -42 0
-22 -31 0
-23 -32 0
-24 -33 0
-22 -37 0
-23 -38 0
-24 -39 0
-22 -40 0
-23 -41 0
-24 -42 0
-22 -43 0
-23 -44 0
-24 -45 0
-25 -31 0
-26 -32 0
-27 -33 0
-25 -37 0
-26 -38 0
-27 -39 0
-31 -34 0
-32 -35 0
-33 -36 0
-31 -37 0
-32 -38 0
-33 -39 0
-31 -40 0
-32 -41 0
-33 -42 0
-31 -43 0
-32 -44 0
-33 -45 0
-34 -40 0
-35 -41 0
-36 -42 0
